(set-info :smt-lib-version 2.6)
(set-logic QF_AUFBV)
(set-info :source |These benchmarks are derived from a semi-automated proof of functional equivalence between two implementations of an Elliptic Curve Digital Signature Algorithm (ECDSA). More information about problem they encode can be found here: http://cps-vo.org/node/3405|)
(set-info :category "industrial")
(set-info :status unsat)
(declare-fun x110 () (_ BitVec 1))
(declare-fun x108 () (_ BitVec 1))
(declare-fun x106 () (_ BitVec 1))
(declare-fun x104 () (_ BitVec 1))
(declare-fun x102 () (_ BitVec 1))
(declare-fun x100 () (_ BitVec 1))
(declare-fun x99 () (_ BitVec 1))
(declare-fun x98 () (_ BitVec 384))
(declare-fun x97 () (_ BitVec 384))
(declare-fun x96 () (_ BitVec 384))
(declare-fun x95 () (_ BitVec 384))
(declare-fun x94 () (_ BitVec 384))
(declare-fun x93 () (_ BitVec 384))
(declare-fun x92 () (_ BitVec 384))
(declare-fun x91 () (_ BitVec 384))
(declare-fun x90 () (_ BitVec 384))
(declare-fun x89 () (_ BitVec 384))
(declare-fun x88 () (_ BitVec 384))
(declare-fun x87 () (_ BitVec 384))
(declare-fun x86 () (_ BitVec 384))
(declare-fun x85 () (_ BitVec 384))
(declare-fun x84 () (_ BitVec 384))
(declare-fun x83 () (_ BitVec 1))
(declare-fun x81 () (_ BitVec 1))
(declare-fun x80 () (_ BitVec 1))
(declare-fun x79 () (_ BitVec 384))
(declare-fun x78 () (_ BitVec 384))
(declare-fun x77 () (_ BitVec 384))
(declare-fun x76 ((_ BitVec 384) (_ BitVec 384) (_ BitVec 384)) (_ BitVec 384))
(declare-fun x75 () (_ BitVec 384))
(declare-fun x74 () (_ BitVec 384))
(declare-fun x73 () (_ BitVec 384))
(declare-fun x72 () (_ BitVec 384))
(declare-fun x71 () (_ BitVec 384))
(declare-fun x70 () (_ BitVec 384))
(declare-fun x69 () (_ BitVec 384))
(declare-fun x68 () (_ BitVec 384))
(declare-fun x67 () (_ BitVec 384))
(declare-fun x66 () (_ BitVec 384))
(declare-fun x65 () (_ BitVec 384))
(declare-fun x64 () (_ BitVec 384))
(declare-fun x62 () (_ BitVec 1))
(declare-fun x61 () (_ BitVec 1))
(declare-fun x60 () (_ BitVec 384))
(declare-fun x59 () (_ BitVec 384))
(declare-fun x58 () (_ BitVec 1))
(declare-fun x56 () (_ BitVec 1))
(declare-fun x55 () (_ BitVec 1))
(declare-fun x54 () (_ BitVec 384))
(declare-fun x53 () (_ BitVec 384))
(declare-fun x52 () (_ BitVec 384))
(declare-fun x51 () (_ BitVec 384))
(declare-fun x50 () (_ BitVec 384))
(declare-fun x49 () (_ BitVec 384))
(declare-fun x48 () (_ BitVec 384))
(declare-fun x47 () (_ BitVec 384))
(declare-fun x45 () (_ BitVec 1))
(declare-fun x44 () (_ BitVec 1))
(declare-fun x43 () (_ BitVec 384))
(declare-fun x42 () (_ BitVec 384))
(declare-fun x41 () (_ BitVec 1))
(declare-fun x39 () (_ BitVec 1))
(declare-fun x38 () (_ BitVec 1))
(declare-fun x37 () (_ BitVec 384))
(declare-fun x36 () (_ BitVec 384))
(declare-fun x35 ((_ BitVec 384) (_ BitVec 384) (_ BitVec 384) (_ BitVec 384) (_ BitVec 384)) (_ BitVec 384))
(declare-fun x34 () (_ BitVec 384))
(declare-fun x33 ((_ BitVec 384) (_ BitVec 384)) (_ BitVec 384))
(declare-fun x32 () (_ BitVec 384))
(declare-fun x31 () (_ BitVec 384))
(declare-fun x30 () (_ BitVec 384))
(declare-fun x29 () (_ BitVec 384))
(declare-fun x28 () (_ BitVec 384))
(declare-fun x27 () (_ BitVec 384))
(declare-fun x26 () (_ BitVec 384))
(declare-fun x25 () (_ BitVec 384))
(declare-fun x23 () (_ BitVec 1))
(declare-fun x21 () (_ BitVec 1))
(declare-fun x19 () (_ BitVec 1))
(declare-fun x18 () (_ BitVec 1))
(declare-fun x17 () (_ BitVec 384))
(declare-fun x16 () (_ BitVec 1))
(declare-fun x15 () (_ BitVec 32))
(declare-fun x14 () (_ BitVec 32))
(declare-fun x13 () (Array (_ BitVec 4) (_ BitVec 32)))
(declare-fun x12 () (Array (_ BitVec 4) (_ BitVec 32)))
(declare-fun x11 () (Array (_ BitVec 4) (_ BitVec 32)))
(declare-fun x10 () (Array (_ BitVec 4) (_ BitVec 32)))
(declare-fun x9 () (Array (_ BitVec 4) (_ BitVec 32)))
(declare-fun x8 () (Array (_ BitVec 4) (_ BitVec 32)))
(declare-fun x7 () (Array (_ BitVec 4) (_ BitVec 32)))
(declare-fun x6 () (Array (_ BitVec 4) (_ BitVec 32)))
(declare-fun x5 () (Array (_ BitVec 4) (_ BitVec 32)))
(declare-fun x4 () (Array (_ BitVec 4) (_ BitVec 32)))
(declare-fun x3 () (Array (_ BitVec 4) (_ BitVec 32)))
(declare-fun x2 () (Array (_ BitVec 4) (_ BitVec 32)))
(declare-fun x1 () (Array (_ BitVec 4) (_ BitVec 32)))
(declare-fun x0 () (Array (_ BitVec 4) (_ BitVec 32)))
(declare-fun p111 () Bool)
(declare-fun p109 () Bool)
(declare-fun p107 () Bool)
(declare-fun p105 () Bool)
(declare-fun p103 () Bool)
(declare-fun p101 () Bool)
(declare-fun p82 () Bool)
(declare-fun p63 () Bool)
(declare-fun p57 () Bool)
(declare-fun p46 () Bool)
(declare-fun p40 () Bool)
(declare-fun p24 () Bool)
(declare-fun p22 () Bool)
(declare-fun p20 () Bool)
(assert (= p111 (and p40 p109)))
(assert (= x110 (bvand x39 x108)))
(assert (= p109 (or (= x17 (_ bv0 384)) p107)))
(assert (= x108 (bvor x41 x106)))
(assert (= p107 (and p57 p105)))
(assert (= x106 (bvand x56 x104)))
(assert (= p105 (or (= x43 (_ bv0 384)) p103)))
(assert (= x104 (bvor x58 x102)))
(assert (= p103 (and p82 p101)))
(assert (= x102 (bvand x81 x100)))
(assert (= p101 (or (bvule x59 x60) (= x84 x98))))
(assert (= x100 (bvor x83 x99)))
(assert (= x99 (ite (= x84 x98) (_ bv1 1) (_ bv0 1))))
(assert (= x98 (x35 x85 x86 x87 x91 x97)))
(assert (= x97 (x33 x92 x96)))
(assert (= x96 (x76 x93 x94 x95)))
(assert (= x95 (concat (concat (concat (concat (concat (concat (concat (concat (concat (concat (concat (select x0 (_ bv11 4)) (select x0 (_ bv10 4))) (select x0 (_ bv9 4))) (select x0 (_ bv8 4))) (select x0 (_ bv7 4))) (select x0 (_ bv6 4))) (select x0 (_ bv5 4))) (select x0 (_ bv4 4))) (select x0 (_ bv3 4))) (select x0 (_ bv2 4))) (select x0 (_ bv1 4))) (select x0 (_ bv0 4)))))
(assert (= x94 (concat (concat (concat (concat (concat (concat (concat (concat (concat (concat (concat (select x4 (_ bv11 4)) (select x4 (_ bv10 4))) (select x4 (_ bv9 4))) (select x4 (_ bv8 4))) (select x4 (_ bv7 4))) (select x4 (_ bv6 4))) (select x4 (_ bv5 4))) (select x4 (_ bv4 4))) (select x4 (_ bv3 4))) (select x4 (_ bv2 4))) (select x4 (_ bv1 4))) (select x4 (_ bv0 4)))))
(assert (= x93 (concat (concat (concat (concat (concat (concat (concat (concat (concat (concat (concat (select x3 (_ bv11 4)) (select x3 (_ bv10 4))) (select x3 (_ bv9 4))) (select x3 (_ bv8 4))) (select x3 (_ bv7 4))) (select x3 (_ bv6 4))) (select x3 (_ bv5 4))) (select x3 (_ bv4 4))) (select x3 (_ bv3 4))) (select x3 (_ bv2 4))) (select x3 (_ bv1 4))) (select x3 (_ bv0 4)))))
(assert (= x92 (concat (concat (concat (concat (concat (concat (concat (concat (concat (concat (concat (select x3 (_ bv11 4)) (select x3 (_ bv10 4))) (select x3 (_ bv9 4))) (select x3 (_ bv8 4))) (select x3 (_ bv7 4))) (select x3 (_ bv6 4))) (select x3 (_ bv5 4))) (select x3 (_ bv4 4))) (select x3 (_ bv3 4))) (select x3 (_ bv2 4))) (select x3 (_ bv1 4))) (select x3 (_ bv0 4)))))
(assert (= x91 (bvlshr x90 (_ bv1 384))))
(assert (= x90 (bvsub x88 x89)))
(assert (= x89 (concat (concat (concat (concat (concat (concat (concat (concat (concat (concat (concat (select x1 (_ bv11 4)) (select x1 (_ bv10 4))) (select x1 (_ bv9 4))) (select x1 (_ bv8 4))) (select x1 (_ bv7 4))) (select x1 (_ bv6 4))) (select x1 (_ bv5 4))) (select x1 (_ bv4 4))) (select x1 (_ bv3 4))) (select x1 (_ bv2 4))) (select x1 (_ bv1 4))) (select x1 (_ bv0 4)))))
(assert (= x88 (concat (concat (concat (concat (concat (concat (concat (concat (concat (concat (concat (select x2 (_ bv11 4)) (select x2 (_ bv10 4))) (select x2 (_ bv9 4))) (select x2 (_ bv8 4))) (select x2 (_ bv7 4))) (select x2 (_ bv6 4))) (select x2 (_ bv5 4))) (select x2 (_ bv4 4))) (select x2 (_ bv3 4))) (select x2 (_ bv2 4))) (select x2 (_ bv1 4))) (select x2 (_ bv0 4)))))
(assert (= x87 (concat (concat (concat (concat (concat (concat (concat (concat (concat (concat (concat (select x0 (_ bv11 4)) (select x0 (_ bv10 4))) (select x0 (_ bv9 4))) (select x0 (_ bv8 4))) (select x0 (_ bv7 4))) (select x0 (_ bv6 4))) (select x0 (_ bv5 4))) (select x0 (_ bv4 4))) (select x0 (_ bv3 4))) (select x0 (_ bv2 4))) (select x0 (_ bv1 4))) (select x0 (_ bv0 4)))))
(assert (= x86 (concat (concat (concat (concat (concat (concat (concat (concat (concat (concat (concat (select x1 (_ bv11 4)) (select x1 (_ bv10 4))) (select x1 (_ bv9 4))) (select x1 (_ bv8 4))) (select x1 (_ bv7 4))) (select x1 (_ bv6 4))) (select x1 (_ bv5 4))) (select x1 (_ bv4 4))) (select x1 (_ bv3 4))) (select x1 (_ bv2 4))) (select x1 (_ bv1 4))) (select x1 (_ bv0 4)))))
(assert (= x85 (concat (concat (concat (concat (concat (concat (concat (concat (concat (concat (concat (select x3 (_ bv11 4)) (select x3 (_ bv10 4))) (select x3 (_ bv9 4))) (select x3 (_ bv8 4))) (select x3 (_ bv7 4))) (select x3 (_ bv6 4))) (select x3 (_ bv5 4))) (select x3 (_ bv4 4))) (select x3 (_ bv3 4))) (select x3 (_ bv2 4))) (select x3 (_ bv1 4))) (select x3 (_ bv0 4)))))
(assert (= x84 (x35 x25 x26 x27 x30 x34)))
(assert (= x83 (ite (bvule x59 x60) (_ bv1 1) (_ bv0 1))))
(assert (= p82 (or p63 (= x64 x79))))
(assert (= x81 (bvor x62 x80)))
(assert (= x80 (ite (= x64 x79) (_ bv1 1) (_ bv0 1))))
(assert (= x79 (x35 x65 x66 x67 x71 x78)))
(assert (= x78 (x33 x72 x77)))
(assert (= x77 (x76 x73 x74 x75)))
(assert (= x75 (concat (concat (concat (concat (concat (concat (concat (concat (concat (concat (concat (select x4 (_ bv11 4)) (select x4 (_ bv10 4))) (select x4 (_ bv9 4))) (select x4 (_ bv8 4))) (select x4 (_ bv7 4))) (select x4 (_ bv6 4))) (select x4 (_ bv5 4))) (select x4 (_ bv4 4))) (select x4 (_ bv3 4))) (select x4 (_ bv2 4))) (select x4 (_ bv1 4))) (select x4 (_ bv0 4)))))
(assert (= x74 (concat (concat (concat (concat (concat (concat (concat (concat (concat (concat (concat (select x0 (_ bv11 4)) (select x0 (_ bv10 4))) (select x0 (_ bv9 4))) (select x0 (_ bv8 4))) (select x0 (_ bv7 4))) (select x0 (_ bv6 4))) (select x0 (_ bv5 4))) (select x0 (_ bv4 4))) (select x0 (_ bv3 4))) (select x0 (_ bv2 4))) (select x0 (_ bv1 4))) (select x0 (_ bv0 4)))))
(assert (= x73 (concat (concat (concat (concat (concat (concat (concat (concat (concat (concat (concat (select x3 (_ bv11 4)) (select x3 (_ bv10 4))) (select x3 (_ bv9 4))) (select x3 (_ bv8 4))) (select x3 (_ bv7 4))) (select x3 (_ bv6 4))) (select x3 (_ bv5 4))) (select x3 (_ bv4 4))) (select x3 (_ bv3 4))) (select x3 (_ bv2 4))) (select x3 (_ bv1 4))) (select x3 (_ bv0 4)))))
(assert (= x72 (concat (concat (concat (concat (concat (concat (concat (concat (concat (concat (concat (select x3 (_ bv11 4)) (select x3 (_ bv10 4))) (select x3 (_ bv9 4))) (select x3 (_ bv8 4))) (select x3 (_ bv7 4))) (select x3 (_ bv6 4))) (select x3 (_ bv5 4))) (select x3 (_ bv4 4))) (select x3 (_ bv3 4))) (select x3 (_ bv2 4))) (select x3 (_ bv1 4))) (select x3 (_ bv0 4)))))
(assert (= x71 (bvlshr x70 (_ bv1 384))))
(assert (= x70 (bvsub x68 x69)))
(assert (= x69 (concat (concat (concat (concat (concat (concat (concat (concat (concat (concat (concat (select x2 (_ bv11 4)) (select x2 (_ bv10 4))) (select x2 (_ bv9 4))) (select x2 (_ bv8 4))) (select x2 (_ bv7 4))) (select x2 (_ bv6 4))) (select x2 (_ bv5 4))) (select x2 (_ bv4 4))) (select x2 (_ bv3 4))) (select x2 (_ bv2 4))) (select x2 (_ bv1 4))) (select x2 (_ bv0 4)))))
(assert (= x68 (concat (concat (concat (concat (concat (concat (concat (concat (concat (concat (concat (select x1 (_ bv11 4)) (select x1 (_ bv10 4))) (select x1 (_ bv9 4))) (select x1 (_ bv8 4))) (select x1 (_ bv7 4))) (select x1 (_ bv6 4))) (select x1 (_ bv5 4))) (select x1 (_ bv4 4))) (select x1 (_ bv3 4))) (select x1 (_ bv2 4))) (select x1 (_ bv1 4))) (select x1 (_ bv0 4)))))
(assert (= x67 (concat (concat (concat (concat (concat (concat (concat (concat (concat (concat (concat (select x4 (_ bv11 4)) (select x4 (_ bv10 4))) (select x4 (_ bv9 4))) (select x4 (_ bv8 4))) (select x4 (_ bv7 4))) (select x4 (_ bv6 4))) (select x4 (_ bv5 4))) (select x4 (_ bv4 4))) (select x4 (_ bv3 4))) (select x4 (_ bv2 4))) (select x4 (_ bv1 4))) (select x4 (_ bv0 4)))))
(assert (= x66 (concat (concat (concat (concat (concat (concat (concat (concat (concat (concat (concat (select x2 (_ bv11 4)) (select x2 (_ bv10 4))) (select x2 (_ bv9 4))) (select x2 (_ bv8 4))) (select x2 (_ bv7 4))) (select x2 (_ bv6 4))) (select x2 (_ bv5 4))) (select x2 (_ bv4 4))) (select x2 (_ bv3 4))) (select x2 (_ bv2 4))) (select x2 (_ bv1 4))) (select x2 (_ bv0 4)))))
(assert (= x65 (concat (concat (concat (concat (concat (concat (concat (concat (concat (concat (concat (select x3 (_ bv11 4)) (select x3 (_ bv10 4))) (select x3 (_ bv9 4))) (select x3 (_ bv8 4))) (select x3 (_ bv7 4))) (select x3 (_ bv6 4))) (select x3 (_ bv5 4))) (select x3 (_ bv4 4))) (select x3 (_ bv3 4))) (select x3 (_ bv2 4))) (select x3 (_ bv1 4))) (select x3 (_ bv0 4)))))
(assert (= x64 (x35 x25 x26 x27 x30 x34)))
(assert (= p63 (not (bvule x59 x60))))
(assert (= x62 (bvnot x61)))
(assert (= x61 (ite (bvule x59 x60) (_ bv1 1) (_ bv0 1))))
(assert (= x60 (concat (concat (concat (concat (concat (concat (concat (concat (concat (concat (concat (select x1 (_ bv11 4)) (select x1 (_ bv10 4))) (select x1 (_ bv9 4))) (select x1 (_ bv8 4))) (select x1 (_ bv7 4))) (select x1 (_ bv6 4))) (select x1 (_ bv5 4))) (select x1 (_ bv4 4))) (select x1 (_ bv3 4))) (select x1 (_ bv2 4))) (select x1 (_ bv1 4))) (select x1 (_ bv0 4)))))
(assert (= x59 (concat (concat (concat (concat (concat (concat (concat (concat (concat (concat (concat (select x2 (_ bv11 4)) (select x2 (_ bv10 4))) (select x2 (_ bv9 4))) (select x2 (_ bv8 4))) (select x2 (_ bv7 4))) (select x2 (_ bv6 4))) (select x2 (_ bv5 4))) (select x2 (_ bv4 4))) (select x2 (_ bv3 4))) (select x2 (_ bv2 4))) (select x2 (_ bv1 4))) (select x2 (_ bv0 4)))))
(assert (= x58 (ite (= x43 (_ bv0 384)) (_ bv1 1) (_ bv0 1))))
(assert (= p57 (or p46 (= x47 x54))))
(assert (= x56 (bvor x45 x55)))
(assert (= x55 (ite (= x47 x54) (_ bv1 1) (_ bv0 1))))
(assert (= x54 (x35 x48 x49 x50 x52 x53)))
(assert (= x53 (x33 x31 x32)))
(assert (= x52 (bvlshr x51 (_ bv1 384))))
(assert (= x51 (concat (concat (concat (concat (concat (concat (concat (concat (concat (concat (concat (select x1 (_ bv11 4)) (select x1 (_ bv10 4))) (select x1 (_ bv9 4))) (select x1 (_ bv8 4))) (select x1 (_ bv7 4))) (select x1 (_ bv6 4))) (select x1 (_ bv5 4))) (select x1 (_ bv4 4))) (select x1 (_ bv3 4))) (select x1 (_ bv2 4))) (select x1 (_ bv1 4))) (select x1 (_ bv0 4)))))
(assert (= x50 (concat (concat (concat (concat (concat (concat (concat (concat (concat (concat (concat (select x4 (_ bv11 4)) (select x4 (_ bv10 4))) (select x4 (_ bv9 4))) (select x4 (_ bv8 4))) (select x4 (_ bv7 4))) (select x4 (_ bv6 4))) (select x4 (_ bv5 4))) (select x4 (_ bv4 4))) (select x4 (_ bv3 4))) (select x4 (_ bv2 4))) (select x4 (_ bv1 4))) (select x4 (_ bv0 4)))))
(assert (= x49 (concat (concat (concat (concat (concat (concat (concat (concat (concat (concat (concat (select x2 (_ bv11 4)) (select x2 (_ bv10 4))) (select x2 (_ bv9 4))) (select x2 (_ bv8 4))) (select x2 (_ bv7 4))) (select x2 (_ bv6 4))) (select x2 (_ bv5 4))) (select x2 (_ bv4 4))) (select x2 (_ bv3 4))) (select x2 (_ bv2 4))) (select x2 (_ bv1 4))) (select x2 (_ bv0 4)))))
(assert (= x48 (concat (concat (concat (concat (concat (concat (concat (concat (concat (concat (concat (select x3 (_ bv11 4)) (select x3 (_ bv10 4))) (select x3 (_ bv9 4))) (select x3 (_ bv8 4))) (select x3 (_ bv7 4))) (select x3 (_ bv6 4))) (select x3 (_ bv5 4))) (select x3 (_ bv4 4))) (select x3 (_ bv3 4))) (select x3 (_ bv2 4))) (select x3 (_ bv1 4))) (select x3 (_ bv0 4)))))
(assert (= x47 (x35 x25 x26 x27 x30 x34)))
(assert (= p46 (not (= x43 (_ bv0 384)))))
(assert (= x45 (bvnot x44)))
(assert (= x44 (ite (= x43 (_ bv0 384)) (_ bv1 1) (_ bv0 1))))
(assert (= x43 (bvand x42 (_ bv1 384))))
(assert (= x42 (concat (concat (concat (concat (concat (concat (concat (concat (concat (concat (concat (select x1 (_ bv11 4)) (select x1 (_ bv10 4))) (select x1 (_ bv9 4))) (select x1 (_ bv8 4))) (select x1 (_ bv7 4))) (select x1 (_ bv6 4))) (select x1 (_ bv5 4))) (select x1 (_ bv4 4))) (select x1 (_ bv3 4))) (select x1 (_ bv2 4))) (select x1 (_ bv1 4))) (select x1 (_ bv0 4)))))
(assert (= x41 (ite (= x17 (_ bv0 384)) (_ bv1 1) (_ bv0 1))))
(assert (= p40 (or p24 (= x36 x37))))
(assert (= x39 (bvor x23 x38)))
(assert (= x38 (ite (= x36 x37) (_ bv1 1) (_ bv0 1))))
(assert (= x37 (concat (concat (concat (concat (concat (concat (concat (concat (concat (concat (concat (select x4 (_ bv11 4)) (select x4 (_ bv10 4))) (select x4 (_ bv9 4))) (select x4 (_ bv8 4))) (select x4 (_ bv7 4))) (select x4 (_ bv6 4))) (select x4 (_ bv5 4))) (select x4 (_ bv4 4))) (select x4 (_ bv3 4))) (select x4 (_ bv2 4))) (select x4 (_ bv1 4))) (select x4 (_ bv0 4)))))
(assert (= x36 (x35 x25 x26 x27 x30 x34)))
(assert (= x34 (x33 x31 x32)))
(assert (= x32 (concat (concat (concat (concat (concat (concat (concat (concat (concat (concat (concat (select x0 (_ bv11 4)) (select x0 (_ bv10 4))) (select x0 (_ bv9 4))) (select x0 (_ bv8 4))) (select x0 (_ bv7 4))) (select x0 (_ bv6 4))) (select x0 (_ bv5 4))) (select x0 (_ bv4 4))) (select x0 (_ bv3 4))) (select x0 (_ bv2 4))) (select x0 (_ bv1 4))) (select x0 (_ bv0 4)))))
(assert (= x31 (concat (concat (concat (concat (concat (concat (concat (concat (concat (concat (concat (select x3 (_ bv11 4)) (select x3 (_ bv10 4))) (select x3 (_ bv9 4))) (select x3 (_ bv8 4))) (select x3 (_ bv7 4))) (select x3 (_ bv6 4))) (select x3 (_ bv5 4))) (select x3 (_ bv4 4))) (select x3 (_ bv3 4))) (select x3 (_ bv2 4))) (select x3 (_ bv1 4))) (select x3 (_ bv0 4)))))
(assert (= x30 (bvor (_ bv0 384) x29)))
(assert (= x29 (bvlshr x28 ((_ zero_extend 379) (_ bv1 5)))))
(assert (= x28 (concat (concat (concat (concat (concat (concat (concat (concat (concat (concat (concat (select x1 (_ bv11 4)) (select x1 (_ bv10 4))) (select x1 (_ bv9 4))) (select x1 (_ bv8 4))) (select x1 (_ bv7 4))) (select x1 (_ bv6 4))) (select x1 (_ bv5 4))) (select x1 (_ bv4 4))) (select x1 (_ bv3 4))) (select x1 (_ bv2 4))) (select x1 (_ bv1 4))) (select x1 (_ bv0 4)))))
(assert (= x27 (concat (concat (concat (concat (concat (concat (concat (concat (concat (concat (concat (select x4 (_ bv11 4)) (select x4 (_ bv10 4))) (select x4 (_ bv9 4))) (select x4 (_ bv8 4))) (select x4 (_ bv7 4))) (select x4 (_ bv6 4))) (select x4 (_ bv5 4))) (select x4 (_ bv4 4))) (select x4 (_ bv3 4))) (select x4 (_ bv2 4))) (select x4 (_ bv1 4))) (select x4 (_ bv0 4)))))
(assert (= x26 (concat (concat (concat (concat (concat (concat (concat (concat (concat (concat (concat (select x2 (_ bv11 4)) (select x2 (_ bv10 4))) (select x2 (_ bv9 4))) (select x2 (_ bv8 4))) (select x2 (_ bv7 4))) (select x2 (_ bv6 4))) (select x2 (_ bv5 4))) (select x2 (_ bv4 4))) (select x2 (_ bv3 4))) (select x2 (_ bv2 4))) (select x2 (_ bv1 4))) (select x2 (_ bv0 4)))))
(assert (= x25 (concat (concat (concat (concat (concat (concat (concat (concat (concat (concat (concat (select x3 (_ bv11 4)) (select x3 (_ bv10 4))) (select x3 (_ bv9 4))) (select x3 (_ bv8 4))) (select x3 (_ bv7 4))) (select x3 (_ bv6 4))) (select x3 (_ bv5 4))) (select x3 (_ bv4 4))) (select x3 (_ bv3 4))) (select x3 (_ bv2 4))) (select x3 (_ bv1 4))) (select x3 (_ bv0 4)))))
(assert (= p24 (not (= x17 (_ bv0 384)))))
(assert (= x23 (bvnot x18)))
(assert (= p22 (and (= x15 (_ bv0 32)) p20)))
(assert (= x21 (bvand x16 x19)))
(assert (= p20 (not (= x17 (_ bv0 384)))))
(assert (= x19 (bvnot x18)))
(assert (= x18 (ite (= x17 (_ bv0 384)) (_ bv1 1) (_ bv0 1))))
(assert (= x17 (concat (concat (concat (concat (concat (concat (concat (concat (concat (concat (concat (select x1 (_ bv11 4)) (select x1 (_ bv10 4))) (select x1 (_ bv9 4))) (select x1 (_ bv8 4))) (select x1 (_ bv7 4))) (select x1 (_ bv6 4))) (select x1 (_ bv5 4))) (select x1 (_ bv4 4))) (select x1 (_ bv3 4))) (select x1 (_ bv2 4))) (select x1 (_ bv1 4))) (select x1 (_ bv0 4)))))
(assert (= x16 (ite (= x15 (_ bv0 32)) (_ bv1 1) (_ bv0 1))))
(assert (= x15 (bvand x14 (_ bv1 32))))
(assert (= x14 (select x1 ((_ extract 3 0) (_ bv0 32)))))
(assert true)
(assert (= (select x13 (_ bv15 4)) (_ bv0 32)))
(assert (= (select x13 (_ bv14 4)) (_ bv0 32)))
(assert (= (select x13 (_ bv13 4)) (_ bv0 32)))
(assert (= (select x13 (_ bv12 4)) (_ bv0 32)))
(assert (= (select x12 (_ bv15 4)) (_ bv0 32)))
(assert (= (select x12 (_ bv14 4)) (_ bv0 32)))
(assert (= (select x12 (_ bv13 4)) (_ bv0 32)))
(assert (= (select x12 (_ bv12 4)) (_ bv0 32)))
(assert (= (select x11 (_ bv15 4)) (_ bv0 32)))
(assert (= (select x11 (_ bv14 4)) (_ bv0 32)))
(assert (= (select x11 (_ bv13 4)) (_ bv0 32)))
(assert (= (select x11 (_ bv12 4)) (_ bv0 32)))
(assert (= (select x10 (_ bv15 4)) (_ bv0 32)))
(assert (= (select x10 (_ bv14 4)) (_ bv0 32)))
(assert (= (select x10 (_ bv13 4)) (_ bv0 32)))
(assert (= (select x10 (_ bv12 4)) (_ bv0 32)))
(assert (= (select x9 (_ bv15 4)) (_ bv0 32)))
(assert (= (select x9 (_ bv14 4)) (_ bv0 32)))
(assert (= (select x9 (_ bv13 4)) (_ bv0 32)))
(assert (= (select x9 (_ bv12 4)) (_ bv0 32)))
(assert (= (select x8 (_ bv15 4)) (_ bv0 32)))
(assert (= (select x8 (_ bv14 4)) (_ bv0 32)))
(assert (= (select x8 (_ bv13 4)) (_ bv0 32)))
(assert (= (select x8 (_ bv12 4)) (_ bv0 32)))
(assert (= (select x7 (_ bv15 4)) (_ bv0 32)))
(assert (= (select x7 (_ bv14 4)) (_ bv0 32)))
(assert (= (select x7 (_ bv13 4)) (_ bv0 32)))
(assert (= (select x7 (_ bv12 4)) (_ bv0 32)))
(assert (= (select x6 (_ bv15 4)) (_ bv0 32)))
(assert (= (select x6 (_ bv14 4)) (_ bv0 32)))
(assert (= (select x6 (_ bv13 4)) (_ bv0 32)))
(assert (= (select x6 (_ bv12 4)) (_ bv0 32)))
(assert (= (select x5 (_ bv15 4)) (_ bv0 32)))
(assert (= (select x5 (_ bv14 4)) (_ bv0 32)))
(assert (= (select x5 (_ bv13 4)) (_ bv0 32)))
(assert (= (select x5 (_ bv12 4)) (_ bv0 32)))
(assert (= (select x4 (_ bv15 4)) (_ bv0 32)))
(assert (= (select x4 (_ bv14 4)) (_ bv0 32)))
(assert (= (select x4 (_ bv13 4)) (_ bv0 32)))
(assert (= (select x4 (_ bv12 4)) (_ bv0 32)))
(assert (= (select x3 (_ bv15 4)) (_ bv0 32)))
(assert (= (select x3 (_ bv14 4)) (_ bv0 32)))
(assert (= (select x3 (_ bv13 4)) (_ bv0 32)))
(assert (= (select x3 (_ bv12 4)) (_ bv0 32)))
(assert (= (select x2 (_ bv15 4)) (_ bv0 32)))
(assert (= (select x2 (_ bv14 4)) (_ bv0 32)))
(assert (= (select x2 (_ bv13 4)) (_ bv0 32)))
(assert (= (select x2 (_ bv12 4)) (_ bv0 32)))
(assert (= (select x1 (_ bv15 4)) (_ bv0 32)))
(assert (= (select x1 (_ bv14 4)) (_ bv0 32)))
(assert (= (select x1 (_ bv13 4)) (_ bv0 32)))
(assert (= (select x1 (_ bv12 4)) (_ bv0 32)))
(assert (= (select x0 (_ bv15 4)) (_ bv0 32)))
(assert (= (select x0 (_ bv14 4)) (_ bv0 32)))
(assert (= (select x0 (_ bv13 4)) (_ bv0 32)))
(assert (= (select x0 (_ bv12 4)) (_ bv0 32)))
(assert (not (=> p22 p111)))
(check-sat)
(exit)
